
******************************************************************************
This program contains Ipopt, a library for large-scale nonlinear optimization.
 Ipopt is released as open source code under the Eclipse Public License (EPL).
         For more information visit https://github.com/coin-or/Ipopt
******************************************************************************

This is Ipopt version 3.14.19, running with linear solver MUMPS 5.8.1.

Number of nonzeros in equality constraint Jacobian...:     4389
Number of nonzeros in inequality constraint Jacobian.:        0
Number of nonzeros in Lagrangian Hessian.............:     1050

Total number of variables............................:     1287
                     variables with only lower bounds:        0
                variables with lower and upper bounds:      457
                     variables with only upper bounds:        0
Total number of equality constraints.................:     1274
Total number of inequality constraints...............:        0
        inequality constraints with only lower bounds:        0
   inequality constraints with lower and upper bounds:        0
        inequality constraints with only upper bounds:        0

iter    objective    inf_pr   inf_du lg(mu)  ||d||  lg(rg) alpha_du alpha_pr  ls
   0  9.8524298e+00 9.79e+01 2.03e-04  -1.0 0.00e+00    -  0.00e+00 0.00e+00   0
   1  1.0048117e+01 7.77e+01 2.23e+01  -1.0 9.68e+01    -  4.15e-02 1.00e+00h  1
   2  9.9610537e+00 1.50e+01 4.77e-02  -1.0 2.51e+01    -  9.60e-01 1.00e+00h  1
   3  9.8951389e+00 7.06e+00 6.27e-02  -1.0 3.61e+00    -  5.18e-01 5.93e-01h  1
   4  9.8900589e+00 4.65e+00 4.89e-01  -1.0 1.13e+01    -  8.22e-01 4.47e-01h  1
   5  9.8715402e+00 7.30e+00 1.55e-03  -1.0 1.46e+01    -  1.00e+00 1.00e+00h  1
   6  9.8776447e+00 5.02e+00 3.43e-04  -1.0 2.27e+01    -  1.00e+00 1.00e+00h  1
   7  9.8757841e+00 4.86e+00 5.85e-02  -1.0 7.18e+01    -  1.00e+00 2.50e-01h  3
   8  9.8766852e+00 4.80e+00 7.18e-02  -1.0 1.45e+02    -  1.00e+00 1.25e-01h  4
   9  9.8761765e+00 4.80e+00 9.15e-02  -1.0 2.38e+02    -  1.00e+00 6.25e-02h  5
iter    objective    inf_pr   inf_du lg(mu)  ||d||  lg(rg) alpha_du alpha_pr  ls
  10  9.8764878e+00 4.79e+00 3.48e-01  -1.0 6.79e+02    -  8.80e-01 5.87e-03h  8
  11  9.8799850e+00 4.69e+00 3.23e-01  -1.0 2.91e+01  -4.0 1.00e+00 6.25e-02h  5
  12  9.8816221e+00 4.68e+00 6.07e-01  -1.0 1.39e+02  -3.6 2.11e-01 3.93e-03h  8
  13  9.8882776e+00 4.57e+00 3.58e-01  -1.0 2.82e+01  -3.1 1.00e+00 3.12e-02h  6
  14  9.9635433e+00 1.14e+00 2.54e-01  -1.0 5.41e+00  -2.7 1.00e+00 5.00e-01h  2
  15  9.9425462e+00 2.67e-01 2.64e-02  -1.0 1.45e+00    -  1.00e+00 1.00e+00h  1
  16  9.9250505e+00 1.58e-01 1.76e-03  -1.7 5.84e-01  -2.3 1.00e+00 1.00e+00h  1
  17  9.9033370e+00 6.82e-01 1.73e-03  -2.5 1.69e+00    -  1.00e+00 1.00e+00h  1
  18  9.8872284e+00 1.42e+00 1.22e-03  -2.5 4.11e+00    -  1.00e+00 1.00e+00h  1
  19  9.8821848e+00 1.08e+00 1.63e-03  -2.5 8.43e+00    -  1.00e+00 1.00e+00h  1
iter    objective    inf_pr   inf_du lg(mu)  ||d||  lg(rg) alpha_du alpha_pr  ls
  20  9.8781675e+00 1.98e+00 8.36e-04  -2.5 1.67e+01    -  1.00e+00 1.00e+00h  1
  21  9.8774723e+00 7.38e-01 1.99e-03  -2.5 3.54e+01    -  1.00e+00 1.00e+00h  1
  22  9.8757553e+00 4.76e+00 1.78e-05  -2.5 8.44e+01    -  1.00e+00 1.00e+00h  1
  23  9.8766828e+00 2.78e-05 5.20e-05  -2.5 3.07e-02  -2.8 1.00e+00 1.00e+00h  1
  24  9.8756345e+00 1.14e+00 1.29e-02  -3.8 7.67e+01    -  7.93e-01 1.00e+00h  1
  25  9.8669054e+00 1.31e+00 2.51e-03  -3.8 1.90e+02    -  4.21e-01 1.00e+00h  1
  26  9.8646925e+00 1.88e+00 8.95e-04  -3.8 3.98e+02    -  1.00e+00 1.00e+00h  1
  27  9.8650335e+00 1.14e+00 1.46e-03  -3.8 8.17e+02    -  1.00e+00 1.00e+00h  1
  28  9.8648630e+00 3.00e+00 4.64e-04  -3.8 1.73e+03    -  1.00e+00 1.00e+00h  1
  29  9.8648516e+00 5.40e-01 4.60e-03  -3.8 4.63e+03    -  1.00e+00 1.00e+00h  1
iter    objective    inf_pr   inf_du lg(mu)  ||d||  lg(rg) alpha_du alpha_pr  ls
  30  9.8648497e+00 1.29e-10 3.79e-08  -3.8 6.74e-05  -3.3 1.00e+00 1.00e+00h  1
  31  9.8641340e+00 2.40e-01 2.12e-03  -5.7 3.97e+03    -  8.26e-01 4.50e-01f  1
  32  9.8640588e+00 7.71e-01 1.66e-03  -5.7 5.37e+03    -  1.00e+00 7.47e-01h  1
  33  9.8640570e+00 1.42e+00 9.27e-04  -5.7 9.48e+03    -  1.00e+00 1.00e+00h  1
  34  9.8640550e+00 1.58e+00 1.04e-03  -5.7 2.11e+04    -  1.00e+00 1.00e+00h  1
  35  9.8640540e+00 1.63e+00 1.05e-03  -5.7 4.33e+04    -  1.00e+00 1.00e+00h  1
  36  9.8640535e+00 1.61e+00 1.08e-03  -5.7 8.72e+04    -  1.00e+00 1.00e+00h  1
  37  9.8640532e+00 1.68e+00 1.04e-03  -5.7 1.75e+05    -  1.00e+00 1.00e+00h  1
  38  9.8640531e+00 1.55e+00 1.13e-03  -5.7 3.50e+05    -  1.00e+00 1.00e+00h  1
  39  9.8640530e+00 6.65e-01 1.93e-03  -5.7 7.00e+05    -  1.00e+00 1.00e+00H  1
iter    objective    inf_pr   inf_du lg(mu)  ||d||  lg(rg) alpha_du alpha_pr  ls
  40  9.8640529e+00 8.80e+00 4.85e-04  -5.7 1.90e+06    -  1.00e+00 1.00e+00h  1
  41  9.8640530e+00 1.79e-13 4.72e-10  -5.7 2.52e-06  -3.7 1.00e+00 1.00e+00h  1
  42  9.8640492e+00 1.21e+00 8.12e-04  -8.6 1.75e+06    -  1.00e+00 9.92e-01h  1
  43  9.8640492e+00 4.07e-01 1.82e-03  -8.6 4.31e+06    -  1.00e+00 1.00e+00H  1
  44  9.8640492e+00 3.97e-01 9.14e-04  -8.6 1.14e+07    -  1.00e+00 1.00e+00H  1
  45  9.8640492e+00 2.07e-01 1.09e-03  -8.6 1.81e+07    -  1.00e+00 1.00e+00H  1
  46  9.8640492e+00 8.08e-02 1.03e-03  -8.6 3.79e+07    -  1.00e+00 1.00e+00H  1
  47  9.8640492e+00 2.18e-02 1.14e-03  -8.6 7.57e+07    -  1.00e+00 1.00e+00H  1
  48  9.8640492e+00 7.33e-03 1.08e-03  -8.6 1.55e+08    -  1.00e+00 1.00e+00H  1
  49  9.8640492e+00 5.93e-03 1.10e-03  -8.6 3.06e+08    -  1.00e+00 1.00e+00H  1
iter    objective    inf_pr   inf_du lg(mu)  ||d||  lg(rg) alpha_du alpha_pr  ls
  50  9.8640492e+00 5.93e-03 1.10e-03  -8.6 6.15e+08    -  1.00e+00 1.95e-03h 10
  51  9.8640492e+00 5.93e-03 1.10e-03  -8.6 6.15e+08    -  1.00e+00 1.95e-03h 10
  52  9.8640492e+00 5.92e-03 1.10e-03  -8.6 6.15e+08    -  1.00e+00 1.95e-03h 10
  53  9.8640492e+00 5.92e-03 1.10e-03  -8.6 6.16e+08    -  1.00e+00 1.95e-03h 10
  54  9.8640492e+00 5.92e-03 1.09e-03  -8.6 6.16e+08    -  1.00e+00 1.95e-03h 10
  55  9.8640492e+00 5.92e-03 1.09e-03  -8.6 6.16e+08    -  1.00e+00 1.95e-03h 10
  56  9.8640492e+00 5.92e-03 1.09e-03  -8.6 6.17e+08    -  1.00e+00 1.95e-03h 10
  57  9.8640492e+00 5.92e-03 1.09e-03  -8.6 6.17e+08    -  1.00e+00 1.95e-03h 10
  58  9.8640492e+00 5.92e-03 1.09e-03  -8.6 6.17e+08    -  1.00e+00 1.95e-03h 10
  59  9.8640492e+00 5.92e-03 1.08e-03  -8.6 6.18e+08    -  1.00e+00 1.95e-03h 10
iter    objective    inf_pr   inf_du lg(mu)  ||d||  lg(rg) alpha_du alpha_pr  ls
  60  9.8640492e+00 2.71e+00 4.24e-04  -8.6 6.18e+08    -  1.00e+00 1.00e+00w  1
  61  9.8640492e+00 1.17e-01 3.59e-03  -8.6 1.73e+09    -  1.00e+00 1.00e+00w  1
  62  9.8640492e+00 1.02e-15 9.33e-15  -8.6 1.49e-10  -4.2 1.00e+00 1.00e+00h  1

Number of Iterations....: 62

                                   (scaled)                 (unscaled)
Objective...............:   9.8640492234742343e+00    9.8640492234742343e+00
Dual infeasibility......:   9.3281290904348364e-15    9.3281290904348364e-15
Constraint violation....:   1.0189346212730552e-15    1.0189346212730552e-15
Variable bound violation:   0.0000000000000000e+00    0.0000000000000000e+00
Complementarity.........:   2.5059035596800680e-09    2.5059035596800680e-09
Overall NLP error.......:   2.5059035596800680e-09    2.5059035596800680e-09


Number of objective function evaluations             = 256
Number of objective gradient evaluations             = 63
Number of equality constraint evaluations            = 256
Number of inequality constraint evaluations          = 0
Number of equality constraint Jacobian evaluations   = 63
Number of inequality constraint Jacobian evaluations = 0
Number of Lagrangian Hessian evaluations             = 62
Total seconds in IPOPT                               = 0.333

EXIT: Optimal Solution Found.
